(set-info :smt-lib-version 2.6)
(set-logic QF_AX)
(set-info :source |
Benchmarks used in the followin paper:
Big proof engines as little proof engines: new results on rewrite-based satisfiability procedure
Alessandro Armando, Maria Paola Bonacina, Silvio Ranise, Stephan Schulz. 
PDPAR'05
http://www.ai.dist.unige.it/pdpar05/


|)
(set-info :category "crafted")
(set-info :status unsat)
(declare-sort Index 0)
(declare-sort Element 0)
(declare-fun a_800 () (Array Index Element))
(declare-fun a_801 () (Array Index Element))
(declare-fun a_802 () (Array Index Element))
(declare-fun a_803 () (Array Index Element))
(declare-fun a_804 () (Array Index Element))
(declare-fun a_805 () (Array Index Element))
(declare-fun a_806 () (Array Index Element))
(declare-fun a_807 () (Array Index Element))
(declare-fun a_808 () (Array Index Element))
(declare-fun a_809 () (Array Index Element))
(declare-fun a_810 () (Array Index Element))
(declare-fun a_811 () (Array Index Element))
(declare-fun a_812 () (Array Index Element))
(declare-fun a_813 () (Array Index Element))
(declare-fun a_814 () (Array Index Element))
(declare-fun a_815 () (Array Index Element))
(declare-fun a_816 () (Array Index Element))
(declare-fun a_817 () (Array Index Element))
(declare-fun a_818 () (Array Index Element))
(declare-fun a_819 () (Array Index Element))
(declare-fun a_820 () (Array Index Element))
(declare-fun a_821 () (Array Index Element))
(declare-fun a_822 () (Array Index Element))
(declare-fun a_823 () (Array Index Element))
(declare-fun a_824 () (Array Index Element))
(declare-fun a_825 () (Array Index Element))
(declare-fun a_826 () (Array Index Element))
(declare-fun a_827 () (Array Index Element))
(declare-fun a_828 () (Array Index Element))
(declare-fun a_829 () (Array Index Element))
(declare-fun a_830 () (Array Index Element))
(declare-fun a_831 () (Array Index Element))
(declare-fun a_832 () (Array Index Element))
(declare-fun a_833 () (Array Index Element))
(declare-fun a_834 () (Array Index Element))
(declare-fun a_835 () (Array Index Element))
(declare-fun a_836 () (Array Index Element))
(declare-fun a_837 () (Array Index Element))
(declare-fun a_838 () (Array Index Element))
(declare-fun a_839 () (Array Index Element))
(declare-fun a_840 () (Array Index Element))
(declare-fun a_841 () (Array Index Element))
(declare-fun a_842 () (Array Index Element))
(declare-fun a_843 () (Array Index Element))
(declare-fun a_844 () (Array Index Element))
(declare-fun a_845 () (Array Index Element))
(declare-fun a_846 () (Array Index Element))
(declare-fun a_847 () (Array Index Element))
(declare-fun a_848 () (Array Index Element))
(declare-fun a_849 () (Array Index Element))
(declare-fun a_850 () (Array Index Element))
(declare-fun a_851 () (Array Index Element))
(declare-fun a_852 () (Array Index Element))
(declare-fun a_853 () (Array Index Element))
(declare-fun a_854 () (Array Index Element))
(declare-fun a_855 () (Array Index Element))
(declare-fun a_856 () (Array Index Element))
(declare-fun a_857 () (Array Index Element))
(declare-fun a_858 () (Array Index Element))
(declare-fun a_859 () (Array Index Element))
(declare-fun a_860 () (Array Index Element))
(declare-fun a_861 () (Array Index Element))
(declare-fun a_862 () (Array Index Element))
(declare-fun a_863 () (Array Index Element))
(declare-fun a_864 () (Array Index Element))
(declare-fun a_865 () (Array Index Element))
(declare-fun a_866 () (Array Index Element))
(declare-fun a_867 () (Array Index Element))
(declare-fun a_868 () (Array Index Element))
(declare-fun a_869 () (Array Index Element))
(declare-fun a_870 () (Array Index Element))
(declare-fun a_871 () (Array Index Element))
(declare-fun a_872 () (Array Index Element))
(declare-fun a_873 () (Array Index Element))
(declare-fun a_874 () (Array Index Element))
(declare-fun a_875 () (Array Index Element))
(declare-fun a_876 () (Array Index Element))
(declare-fun a_877 () (Array Index Element))
(declare-fun a_878 () (Array Index Element))
(declare-fun a_879 () (Array Index Element))
(declare-fun a1 () (Array Index Element))
(declare-fun e1 () Element)
(declare-fun e10 () Element)
(declare-fun e11 () Element)
(declare-fun e12 () Element)
(declare-fun e13 () Element)
(declare-fun e14 () Element)
(declare-fun e15 () Element)
(declare-fun e16 () Element)
(declare-fun e17 () Element)
(declare-fun e18 () Element)
(declare-fun e19 () Element)
(declare-fun e2 () Element)
(declare-fun e20 () Element)
(declare-fun e21 () Element)
(declare-fun e22 () Element)
(declare-fun e23 () Element)
(declare-fun e24 () Element)
(declare-fun e25 () Element)
(declare-fun e26 () Element)
(declare-fun e27 () Element)
(declare-fun e28 () Element)
(declare-fun e29 () Element)
(declare-fun e3 () Element)
(declare-fun e30 () Element)
(declare-fun e31 () Element)
(declare-fun e32 () Element)
(declare-fun e33 () Element)
(declare-fun e34 () Element)
(declare-fun e35 () Element)
(declare-fun e36 () Element)
(declare-fun e37 () Element)
(declare-fun e38 () Element)
(declare-fun e39 () Element)
(declare-fun e4 () Element)
(declare-fun e40 () Element)
(declare-fun e5 () Element)
(declare-fun e6 () Element)
(declare-fun e7 () Element)
(declare-fun e8 () Element)
(declare-fun e9 () Element)
(declare-fun i1 () Index)
(declare-fun i10 () Index)
(declare-fun i11 () Index)
(declare-fun i12 () Index)
(declare-fun i13 () Index)
(declare-fun i14 () Index)
(declare-fun i15 () Index)
(declare-fun i16 () Index)
(declare-fun i17 () Index)
(declare-fun i18 () Index)
(declare-fun i19 () Index)
(declare-fun i2 () Index)
(declare-fun i20 () Index)
(declare-fun i21 () Index)
(declare-fun i22 () Index)
(declare-fun i23 () Index)
(declare-fun i24 () Index)
(declare-fun i25 () Index)
(declare-fun i26 () Index)
(declare-fun i27 () Index)
(declare-fun i28 () Index)
(declare-fun i29 () Index)
(declare-fun i3 () Index)
(declare-fun i30 () Index)
(declare-fun i31 () Index)
(declare-fun i32 () Index)
(declare-fun i33 () Index)
(declare-fun i34 () Index)
(declare-fun i35 () Index)
(declare-fun i36 () Index)
(declare-fun i37 () Index)
(declare-fun i38 () Index)
(declare-fun i39 () Index)
(declare-fun i4 () Index)
(declare-fun i40 () Index)
(declare-fun i5 () Index)
(declare-fun i6 () Index)
(declare-fun i7 () Index)
(declare-fun i8 () Index)
(declare-fun i9 () Index)
(assert (= a_800 (store a1 i1 e1)))
(assert (= a_801 (store a_800 i2 e2)))
(assert (= a_802 (store a_801 i3 e3)))
(assert (= a_803 (store a_802 i4 e4)))
(assert (= a_804 (store a_803 i5 e5)))
(assert (= a_805 (store a_804 i6 e6)))
(assert (= a_806 (store a_805 i7 e7)))
(assert (= a_807 (store a_806 i8 e8)))
(assert (= a_808 (store a_807 i9 e9)))
(assert (= a_809 (store a_808 i10 e10)))
(assert (= a_810 (store a_809 i11 e11)))
(assert (= a_811 (store a_810 i12 e12)))
(assert (= a_812 (store a_811 i13 e13)))
(assert (= a_813 (store a_812 i14 e14)))
(assert (= a_814 (store a_813 i15 e15)))
(assert (= a_815 (store a_814 i16 e16)))
(assert (= a_816 (store a_815 i17 e17)))
(assert (= a_817 (store a_816 i18 e18)))
(assert (= a_818 (store a_817 i19 e19)))
(assert (= a_819 (store a_818 i20 e20)))
(assert (= a_820 (store a_819 i21 e21)))
(assert (= a_821 (store a_820 i22 e22)))
(assert (= a_822 (store a_821 i23 e23)))
(assert (= a_823 (store a_822 i24 e24)))
(assert (= a_824 (store a_823 i25 e25)))
(assert (= a_825 (store a_824 i26 e26)))
(assert (= a_826 (store a_825 i27 e27)))
(assert (= a_827 (store a_826 i28 e28)))
(assert (= a_828 (store a_827 i29 e29)))
(assert (= a_829 (store a_828 i30 e30)))
(assert (= a_830 (store a_829 i31 e31)))
(assert (= a_831 (store a_830 i32 e32)))
(assert (= a_832 (store a_831 i33 e33)))
(assert (= a_833 (store a_832 i34 e34)))
(assert (= a_834 (store a_833 i35 e35)))
(assert (= a_835 (store a_834 i36 e36)))
(assert (= a_836 (store a_835 i37 e37)))
(assert (= a_837 (store a_836 i38 e38)))
(assert (= a_838 (store a_837 i39 e39)))
(assert (= a_839 (store a_838 i40 e40)))
(assert (= a_840 (store a1 i2 e2)))
(assert (= a_841 (store a_840 i15 e15)))
(assert (= a_842 (store a_841 i10 e10)))
(assert (= a_843 (store a_842 i40 e40)))
(assert (= a_844 (store a_843 i20 e20)))
(assert (= a_845 (store a_844 i8 e8)))
(assert (= a_846 (store a_845 i27 e27)))
(assert (= a_847 (store a_846 i35 e35)))
(assert (= a_848 (store a_847 i25 e25)))
(assert (= a_849 (store a_848 i18 e18)))
(assert (= a_850 (store a_849 i1 e1)))
(assert (= a_851 (store a_850 i31 e31)))
(assert (= a_852 (store a_851 i4 e4)))
(assert (= a_853 (store a_852 i11 e11)))
(assert (= a_854 (store a_853 i33 e33)))
(assert (= a_855 (store a_854 i30 e30)))
(assert (= a_856 (store a_855 i17 e17)))
(assert (= a_857 (store a_856 i32 e32)))
(assert (= a_858 (store a_857 i14 e14)))
(assert (= a_859 (store a_858 i13 e13)))
(assert (= a_860 (store a_859 i7 e7)))
(assert (= a_861 (store a_860 i9 e9)))
(assert (= a_862 (store a_861 i19 e19)))
(assert (= a_863 (store a_862 i34 e34)))
(assert (= a_864 (store a_863 i6 e6)))
(assert (= a_865 (store a_864 i26 e26)))
(assert (= a_866 (store a_865 i21 e21)))
(assert (= a_867 (store a_866 i23 e23)))
(assert (= a_868 (store a_867 i24 e24)))
(assert (= a_869 (store a_868 i37 e37)))
(assert (= a_870 (store a_869 i38 e38)))
(assert (= a_871 (store a_870 i39 e39)))
(assert (= a_872 (store a_871 i5 e5)))
(assert (= a_873 (store a_872 i28 e28)))
(assert (= a_874 (store a_873 i36 e36)))
(assert (= a_875 (store a_874 i16 e16)))
(assert (= a_876 (store a_875 i3 e3)))
(assert (= a_877 (store a_876 i12 e12)))
(assert (= a_878 (store a_877 i22 e22)))
(assert (= a_879 (store a_878 i29 e29)))
(assert (not (= i39 i40)))
(assert (not (= i38 i40)))
(assert (not (= i38 i39)))
(assert (not (= i37 i40)))
(assert (not (= i37 i39)))
(assert (not (= i37 i38)))
(assert (not (= i36 i40)))
(assert (not (= i36 i39)))
(assert (not (= i36 i38)))
(assert (not (= i36 i37)))
(assert (not (= i35 i40)))
(assert (not (= i35 i39)))
(assert (not (= i35 i38)))
(assert (not (= i35 i37)))
(assert (not (= i35 i36)))
(assert (not (= i34 i40)))
(assert (not (= i34 i39)))
(assert (not (= i34 i38)))
(assert (not (= i34 i37)))
(assert (not (= i34 i36)))
(assert (not (= i34 i35)))
(assert (not (= i33 i40)))
(assert (not (= i33 i39)))
(assert (not (= i33 i38)))
(assert (not (= i33 i37)))
(assert (not (= i33 i36)))
(assert (not (= i33 i35)))
(assert (not (= i33 i34)))
(assert (not (= i32 i40)))
(assert (not (= i32 i39)))
(assert (not (= i32 i38)))
(assert (not (= i32 i37)))
(assert (not (= i32 i36)))
(assert (not (= i32 i35)))
(assert (not (= i32 i34)))
(assert (not (= i32 i33)))
(assert (not (= i31 i40)))
(assert (not (= i31 i39)))
(assert (not (= i31 i38)))
(assert (not (= i31 i37)))
(assert (not (= i31 i36)))
(assert (not (= i31 i35)))
(assert (not (= i31 i34)))
(assert (not (= i31 i33)))
(assert (not (= i31 i32)))
(assert (not (= i30 i40)))
(assert (not (= i30 i39)))
(assert (not (= i30 i38)))
(assert (not (= i30 i37)))
(assert (not (= i30 i36)))
(assert (not (= i30 i35)))
(assert (not (= i30 i34)))
(assert (not (= i30 i33)))
(assert (not (= i30 i32)))
(assert (not (= i30 i31)))
(assert (not (= i29 i40)))
(assert (not (= i29 i39)))
(assert (not (= i29 i38)))
(assert (not (= i29 i37)))
(assert (not (= i29 i36)))
(assert (not (= i29 i35)))
(assert (not (= i29 i34)))
(assert (not (= i29 i33)))
(assert (not (= i29 i32)))
(assert (not (= i29 i31)))
(assert (not (= i29 i30)))
(assert (not (= i28 i40)))
(assert (not (= i28 i39)))
(assert (not (= i28 i38)))
(assert (not (= i28 i37)))
(assert (not (= i28 i36)))
(assert (not (= i28 i35)))
(assert (not (= i28 i34)))
(assert (not (= i28 i33)))
(assert (not (= i28 i32)))
(assert (not (= i28 i31)))
(assert (not (= i28 i30)))
(assert (not (= i28 i29)))
(assert (not (= i27 i40)))
(assert (not (= i27 i39)))
(assert (not (= i27 i38)))
(assert (not (= i27 i37)))
(assert (not (= i27 i36)))
(assert (not (= i27 i35)))
(assert (not (= i27 i34)))
(assert (not (= i27 i33)))
(assert (not (= i27 i32)))
(assert (not (= i27 i31)))
(assert (not (= i27 i30)))
(assert (not (= i27 i29)))
(assert (not (= i27 i28)))
(assert (not (= i26 i40)))
(assert (not (= i26 i39)))
(assert (not (= i26 i38)))
(assert (not (= i26 i37)))
(assert (not (= i26 i36)))
(assert (not (= i26 i35)))
(assert (not (= i26 i34)))
(assert (not (= i26 i33)))
(assert (not (= i26 i32)))
(assert (not (= i26 i31)))
(assert (not (= i26 i30)))
(assert (not (= i26 i29)))
(assert (not (= i26 i28)))
(assert (not (= i26 i27)))
(assert (not (= i25 i40)))
(assert (not (= i25 i39)))
(assert (not (= i25 i38)))
(assert (not (= i25 i37)))
(assert (not (= i25 i36)))
(assert (not (= i25 i35)))
(assert (not (= i25 i34)))
(assert (not (= i25 i33)))
(assert (not (= i25 i32)))
(assert (not (= i25 i31)))
(assert (not (= i25 i30)))
(assert (not (= i25 i29)))
(assert (not (= i25 i28)))
(assert (not (= i25 i27)))
(assert (not (= i25 i26)))
(assert (not (= i24 i40)))
(assert (not (= i24 i39)))
(assert (not (= i24 i38)))
(assert (not (= i24 i37)))
(assert (not (= i24 i36)))
(assert (not (= i24 i35)))
(assert (not (= i24 i34)))
(assert (not (= i24 i33)))
(assert (not (= i24 i32)))
(assert (not (= i24 i31)))
(assert (not (= i24 i30)))
(assert (not (= i24 i29)))
(assert (not (= i24 i28)))
(assert (not (= i24 i27)))
(assert (not (= i24 i26)))
(assert (not (= i24 i25)))
(assert (not (= i23 i40)))
(assert (not (= i23 i39)))
(assert (not (= i23 i38)))
(assert (not (= i23 i37)))
(assert (not (= i23 i36)))
(assert (not (= i23 i35)))
(assert (not (= i23 i34)))
(assert (not (= i23 i33)))
(assert (not (= i23 i32)))
(assert (not (= i23 i31)))
(assert (not (= i23 i30)))
(assert (not (= i23 i29)))
(assert (not (= i23 i28)))
(assert (not (= i23 i27)))
(assert (not (= i23 i26)))
(assert (not (= i23 i25)))
(assert (not (= i23 i24)))
(assert (not (= i22 i40)))
(assert (not (= i22 i39)))
(assert (not (= i22 i38)))
(assert (not (= i22 i37)))
(assert (not (= i22 i36)))
(assert (not (= i22 i35)))
(assert (not (= i22 i34)))
(assert (not (= i22 i33)))
(assert (not (= i22 i32)))
(assert (not (= i22 i31)))
(assert (not (= i22 i30)))
(assert (not (= i22 i29)))
(assert (not (= i22 i28)))
(assert (not (= i22 i27)))
(assert (not (= i22 i26)))
(assert (not (= i22 i25)))
(assert (not (= i22 i24)))
(assert (not (= i22 i23)))
(assert (not (= i21 i40)))
(assert (not (= i21 i39)))
(assert (not (= i21 i38)))
(assert (not (= i21 i37)))
(assert (not (= i21 i36)))
(assert (not (= i21 i35)))
(assert (not (= i21 i34)))
(assert (not (= i21 i33)))
(assert (not (= i21 i32)))
(assert (not (= i21 i31)))
(assert (not (= i21 i30)))
(assert (not (= i21 i29)))
(assert (not (= i21 i28)))
(assert (not (= i21 i27)))
(assert (not (= i21 i26)))
(assert (not (= i21 i25)))
(assert (not (= i21 i24)))
(assert (not (= i21 i23)))
(assert (not (= i21 i22)))
(assert (not (= i20 i40)))
(assert (not (= i20 i39)))
(assert (not (= i20 i38)))
(assert (not (= i20 i37)))
(assert (not (= i20 i36)))
(assert (not (= i20 i35)))
(assert (not (= i20 i34)))
(assert (not (= i20 i33)))
(assert (not (= i20 i32)))
(assert (not (= i20 i31)))
(assert (not (= i20 i30)))
(assert (not (= i20 i29)))
(assert (not (= i20 i28)))
(assert (not (= i20 i27)))
(assert (not (= i20 i26)))
(assert (not (= i20 i25)))
(assert (not (= i20 i24)))
(assert (not (= i20 i23)))
(assert (not (= i20 i22)))
(assert (not (= i20 i21)))
(assert (not (= i19 i40)))
(assert (not (= i19 i39)))
(assert (not (= i19 i38)))
(assert (not (= i19 i37)))
(assert (not (= i19 i36)))
(assert (not (= i19 i35)))
(assert (not (= i19 i34)))
(assert (not (= i19 i33)))
(assert (not (= i19 i32)))
(assert (not (= i19 i31)))
(assert (not (= i19 i30)))
(assert (not (= i19 i29)))
(assert (not (= i19 i28)))
(assert (not (= i19 i27)))
(assert (not (= i19 i26)))
(assert (not (= i19 i25)))
(assert (not (= i19 i24)))
(assert (not (= i19 i23)))
(assert (not (= i19 i22)))
(assert (not (= i19 i21)))
(assert (not (= i19 i20)))
(assert (not (= i18 i40)))
(assert (not (= i18 i39)))
(assert (not (= i18 i38)))
(assert (not (= i18 i37)))
(assert (not (= i18 i36)))
(assert (not (= i18 i35)))
(assert (not (= i18 i34)))
(assert (not (= i18 i33)))
(assert (not (= i18 i32)))
(assert (not (= i18 i31)))
(assert (not (= i18 i30)))
(assert (not (= i18 i29)))
(assert (not (= i18 i28)))
(assert (not (= i18 i27)))
(assert (not (= i18 i26)))
(assert (not (= i18 i25)))
(assert (not (= i18 i24)))
(assert (not (= i18 i23)))
(assert (not (= i18 i22)))
(assert (not (= i18 i21)))
(assert (not (= i18 i20)))
(assert (not (= i18 i19)))
(assert (not (= i17 i40)))
(assert (not (= i17 i39)))
(assert (not (= i17 i38)))
(assert (not (= i17 i37)))
(assert (not (= i17 i36)))
(assert (not (= i17 i35)))
(assert (not (= i17 i34)))
(assert (not (= i17 i33)))
(assert (not (= i17 i32)))
(assert (not (= i17 i31)))
(assert (not (= i17 i30)))
(assert (not (= i17 i29)))
(assert (not (= i17 i28)))
(assert (not (= i17 i27)))
(assert (not (= i17 i26)))
(assert (not (= i17 i25)))
(assert (not (= i17 i24)))
(assert (not (= i17 i23)))
(assert (not (= i17 i22)))
(assert (not (= i17 i21)))
(assert (not (= i17 i20)))
(assert (not (= i17 i19)))
(assert (not (= i17 i18)))
(assert (not (= i16 i40)))
(assert (not (= i16 i39)))
(assert (not (= i16 i38)))
(assert (not (= i16 i37)))
(assert (not (= i16 i36)))
(assert (not (= i16 i35)))
(assert (not (= i16 i34)))
(assert (not (= i16 i33)))
(assert (not (= i16 i32)))
(assert (not (= i16 i31)))
(assert (not (= i16 i30)))
(assert (not (= i16 i29)))
(assert (not (= i16 i28)))
(assert (not (= i16 i27)))
(assert (not (= i16 i26)))
(assert (not (= i16 i25)))
(assert (not (= i16 i24)))
(assert (not (= i16 i23)))
(assert (not (= i16 i22)))
(assert (not (= i16 i21)))
(assert (not (= i16 i20)))
(assert (not (= i16 i19)))
(assert (not (= i16 i18)))
(assert (not (= i16 i17)))
(assert (not (= i15 i40)))
(assert (not (= i15 i39)))
(assert (not (= i15 i38)))
(assert (not (= i15 i37)))
(assert (not (= i15 i36)))
(assert (not (= i15 i35)))
(assert (not (= i15 i34)))
(assert (not (= i15 i33)))
(assert (not (= i15 i32)))
(assert (not (= i15 i31)))
(assert (not (= i15 i30)))
(assert (not (= i15 i29)))
(assert (not (= i15 i28)))
(assert (not (= i15 i27)))
(assert (not (= i15 i26)))
(assert (not (= i15 i25)))
(assert (not (= i15 i24)))
(assert (not (= i15 i23)))
(assert (not (= i15 i22)))
(assert (not (= i15 i21)))
(assert (not (= i15 i20)))
(assert (not (= i15 i19)))
(assert (not (= i15 i18)))
(assert (not (= i15 i17)))
(assert (not (= i15 i16)))
(assert (not (= i14 i40)))
(assert (not (= i14 i39)))
(assert (not (= i14 i38)))
(assert (not (= i14 i37)))
(assert (not (= i14 i36)))
(assert (not (= i14 i35)))
(assert (not (= i14 i34)))
(assert (not (= i14 i33)))
(assert (not (= i14 i32)))
(assert (not (= i14 i31)))
(assert (not (= i14 i30)))
(assert (not (= i14 i29)))
(assert (not (= i14 i28)))
(assert (not (= i14 i27)))
(assert (not (= i14 i26)))
(assert (not (= i14 i25)))
(assert (not (= i14 i24)))
(assert (not (= i14 i23)))
(assert (not (= i14 i22)))
(assert (not (= i14 i21)))
(assert (not (= i14 i20)))
(assert (not (= i14 i19)))
(assert (not (= i14 i18)))
(assert (not (= i14 i17)))
(assert (not (= i14 i16)))
(assert (not (= i14 i15)))
(assert (not (= i13 i40)))
(assert (not (= i13 i39)))
(assert (not (= i13 i38)))
(assert (not (= i13 i37)))
(assert (not (= i13 i36)))
(assert (not (= i13 i35)))
(assert (not (= i13 i34)))
(assert (not (= i13 i33)))
(assert (not (= i13 i32)))
(assert (not (= i13 i31)))
(assert (not (= i13 i30)))
(assert (not (= i13 i29)))
(assert (not (= i13 i28)))
(assert (not (= i13 i27)))
(assert (not (= i13 i26)))
(assert (not (= i13 i25)))
(assert (not (= i13 i24)))
(assert (not (= i13 i23)))
(assert (not (= i13 i22)))
(assert (not (= i13 i21)))
(assert (not (= i13 i20)))
(assert (not (= i13 i19)))
(assert (not (= i13 i18)))
(assert (not (= i13 i17)))
(assert (not (= i13 i16)))
(assert (not (= i13 i15)))
(assert (not (= i13 i14)))
(assert (not (= i12 i40)))
(assert (not (= i12 i39)))
(assert (not (= i12 i38)))
(assert (not (= i12 i37)))
(assert (not (= i12 i36)))
(assert (not (= i12 i35)))
(assert (not (= i12 i34)))
(assert (not (= i12 i33)))
(assert (not (= i12 i32)))
(assert (not (= i12 i31)))
(assert (not (= i12 i30)))
(assert (not (= i12 i29)))
(assert (not (= i12 i28)))
(assert (not (= i12 i27)))
(assert (not (= i12 i26)))
(assert (not (= i12 i25)))
(assert (not (= i12 i24)))
(assert (not (= i12 i23)))
(assert (not (= i12 i22)))
(assert (not (= i12 i21)))
(assert (not (= i12 i20)))
(assert (not (= i12 i19)))
(assert (not (= i12 i18)))
(assert (not (= i12 i17)))
(assert (not (= i12 i16)))
(assert (not (= i12 i15)))
(assert (not (= i12 i14)))
(assert (not (= i12 i13)))
(assert (not (= i11 i40)))
(assert (not (= i11 i39)))
(assert (not (= i11 i38)))
(assert (not (= i11 i37)))
(assert (not (= i11 i36)))
(assert (not (= i11 i35)))
(assert (not (= i11 i34)))
(assert (not (= i11 i33)))
(assert (not (= i11 i32)))
(assert (not (= i11 i31)))
(assert (not (= i11 i30)))
(assert (not (= i11 i29)))
(assert (not (= i11 i28)))
(assert (not (= i11 i27)))
(assert (not (= i11 i26)))
(assert (not (= i11 i25)))
(assert (not (= i11 i24)))
(assert (not (= i11 i23)))
(assert (not (= i11 i22)))
(assert (not (= i11 i21)))
(assert (not (= i11 i20)))
(assert (not (= i11 i19)))
(assert (not (= i11 i18)))
(assert (not (= i11 i17)))
(assert (not (= i11 i16)))
(assert (not (= i11 i15)))
(assert (not (= i11 i14)))
(assert (not (= i11 i13)))
(assert (not (= i11 i12)))
(assert (not (= i10 i40)))
(assert (not (= i10 i39)))
(assert (not (= i10 i38)))
(assert (not (= i10 i37)))
(assert (not (= i10 i36)))
(assert (not (= i10 i35)))
(assert (not (= i10 i34)))
(assert (not (= i10 i33)))
(assert (not (= i10 i32)))
(assert (not (= i10 i31)))
(assert (not (= i10 i30)))
(assert (not (= i10 i29)))
(assert (not (= i10 i28)))
(assert (not (= i10 i27)))
(assert (not (= i10 i26)))
(assert (not (= i10 i25)))
(assert (not (= i10 i24)))
(assert (not (= i10 i23)))
(assert (not (= i10 i22)))
(assert (not (= i10 i21)))
(assert (not (= i10 i20)))
(assert (not (= i10 i19)))
(assert (not (= i10 i18)))
(assert (not (= i10 i17)))
(assert (not (= i10 i16)))
(assert (not (= i10 i15)))
(assert (not (= i10 i14)))
(assert (not (= i10 i13)))
(assert (not (= i10 i12)))
(assert (not (= i10 i11)))
(assert (not (= i9 i40)))
(assert (not (= i9 i39)))
(assert (not (= i9 i38)))
(assert (not (= i9 i37)))
(assert (not (= i9 i36)))
(assert (not (= i9 i35)))
(assert (not (= i9 i34)))
(assert (not (= i9 i33)))
(assert (not (= i9 i32)))
(assert (not (= i9 i31)))
(assert (not (= i9 i30)))
(assert (not (= i9 i29)))
(assert (not (= i9 i28)))
(assert (not (= i9 i27)))
(assert (not (= i9 i26)))
(assert (not (= i9 i25)))
(assert (not (= i9 i24)))
(assert (not (= i9 i23)))
(assert (not (= i9 i22)))
(assert (not (= i9 i21)))
(assert (not (= i9 i20)))
(assert (not (= i9 i19)))
(assert (not (= i9 i18)))
(assert (not (= i9 i17)))
(assert (not (= i9 i16)))
(assert (not (= i9 i15)))
(assert (not (= i9 i14)))
(assert (not (= i9 i13)))
(assert (not (= i9 i12)))
(assert (not (= i9 i11)))
(assert (not (= i9 i10)))
(assert (not (= i8 i40)))
(assert (not (= i8 i39)))
(assert (not (= i8 i38)))
(assert (not (= i8 i37)))
(assert (not (= i8 i36)))
(assert (not (= i8 i35)))
(assert (not (= i8 i34)))
(assert (not (= i8 i33)))
(assert (not (= i8 i32)))
(assert (not (= i8 i31)))
(assert (not (= i8 i30)))
(assert (not (= i8 i29)))
(assert (not (= i8 i28)))
(assert (not (= i8 i27)))
(assert (not (= i8 i26)))
(assert (not (= i8 i25)))
(assert (not (= i8 i24)))
(assert (not (= i8 i23)))
(assert (not (= i8 i22)))
(assert (not (= i8 i21)))
(assert (not (= i8 i20)))
(assert (not (= i8 i19)))
(assert (not (= i8 i18)))
(assert (not (= i8 i17)))
(assert (not (= i8 i16)))
(assert (not (= i8 i15)))
(assert (not (= i8 i14)))
(assert (not (= i8 i13)))
(assert (not (= i8 i12)))
(assert (not (= i8 i11)))
(assert (not (= i8 i10)))
(assert (not (= i8 i9)))
(assert (not (= i7 i40)))
(assert (not (= i7 i39)))
(assert (not (= i7 i38)))
(assert (not (= i7 i37)))
(assert (not (= i7 i36)))
(assert (not (= i7 i35)))
(assert (not (= i7 i34)))
(assert (not (= i7 i33)))
(assert (not (= i7 i32)))
(assert (not (= i7 i31)))
(assert (not (= i7 i30)))
(assert (not (= i7 i29)))
(assert (not (= i7 i28)))
(assert (not (= i7 i27)))
(assert (not (= i7 i26)))
(assert (not (= i7 i25)))
(assert (not (= i7 i24)))
(assert (not (= i7 i23)))
(assert (not (= i7 i22)))
(assert (not (= i7 i21)))
(assert (not (= i7 i20)))
(assert (not (= i7 i19)))
(assert (not (= i7 i18)))
(assert (not (= i7 i17)))
(assert (not (= i7 i16)))
(assert (not (= i7 i15)))
(assert (not (= i7 i14)))
(assert (not (= i7 i13)))
(assert (not (= i7 i12)))
(assert (not (= i7 i11)))
(assert (not (= i7 i10)))
(assert (not (= i7 i9)))
(assert (not (= i7 i8)))
(assert (not (= i6 i40)))
(assert (not (= i6 i39)))
(assert (not (= i6 i38)))
(assert (not (= i6 i37)))
(assert (not (= i6 i36)))
(assert (not (= i6 i35)))
(assert (not (= i6 i34)))
(assert (not (= i6 i33)))
(assert (not (= i6 i32)))
(assert (not (= i6 i31)))
(assert (not (= i6 i30)))
(assert (not (= i6 i29)))
(assert (not (= i6 i28)))
(assert (not (= i6 i27)))
(assert (not (= i6 i26)))
(assert (not (= i6 i25)))
(assert (not (= i6 i24)))
(assert (not (= i6 i23)))
(assert (not (= i6 i22)))
(assert (not (= i6 i21)))
(assert (not (= i6 i20)))
(assert (not (= i6 i19)))
(assert (not (= i6 i18)))
(assert (not (= i6 i17)))
(assert (not (= i6 i16)))
(assert (not (= i6 i15)))
(assert (not (= i6 i14)))
(assert (not (= i6 i13)))
(assert (not (= i6 i12)))
(assert (not (= i6 i11)))
(assert (not (= i6 i10)))
(assert (not (= i6 i9)))
(assert (not (= i6 i8)))
(assert (not (= i6 i7)))
(assert (not (= i5 i40)))
(assert (not (= i5 i39)))
(assert (not (= i5 i38)))
(assert (not (= i5 i37)))
(assert (not (= i5 i36)))
(assert (not (= i5 i35)))
(assert (not (= i5 i34)))
(assert (not (= i5 i33)))
(assert (not (= i5 i32)))
(assert (not (= i5 i31)))
(assert (not (= i5 i30)))
(assert (not (= i5 i29)))
(assert (not (= i5 i28)))
(assert (not (= i5 i27)))
(assert (not (= i5 i26)))
(assert (not (= i5 i25)))
(assert (not (= i5 i24)))
(assert (not (= i5 i23)))
(assert (not (= i5 i22)))
(assert (not (= i5 i21)))
(assert (not (= i5 i20)))
(assert (not (= i5 i19)))
(assert (not (= i5 i18)))
(assert (not (= i5 i17)))
(assert (not (= i5 i16)))
(assert (not (= i5 i15)))
(assert (not (= i5 i14)))
(assert (not (= i5 i13)))
(assert (not (= i5 i12)))
(assert (not (= i5 i11)))
(assert (not (= i5 i10)))
(assert (not (= i5 i9)))
(assert (not (= i5 i8)))
(assert (not (= i5 i7)))
(assert (not (= i5 i6)))
(assert (not (= i4 i40)))
(assert (not (= i4 i39)))
(assert (not (= i4 i38)))
(assert (not (= i4 i37)))
(assert (not (= i4 i36)))
(assert (not (= i4 i35)))
(assert (not (= i4 i34)))
(assert (not (= i4 i33)))
(assert (not (= i4 i32)))
(assert (not (= i4 i31)))
(assert (not (= i4 i30)))
(assert (not (= i4 i29)))
(assert (not (= i4 i28)))
(assert (not (= i4 i27)))
(assert (not (= i4 i26)))
(assert (not (= i4 i25)))
(assert (not (= i4 i24)))
(assert (not (= i4 i23)))
(assert (not (= i4 i22)))
(assert (not (= i4 i21)))
(assert (not (= i4 i20)))
(assert (not (= i4 i19)))
(assert (not (= i4 i18)))
(assert (not (= i4 i17)))
(assert (not (= i4 i16)))
(assert (not (= i4 i15)))
(assert (not (= i4 i14)))
(assert (not (= i4 i13)))
(assert (not (= i4 i12)))
(assert (not (= i4 i11)))
(assert (not (= i4 i10)))
(assert (not (= i4 i9)))
(assert (not (= i4 i8)))
(assert (not (= i4 i7)))
(assert (not (= i4 i6)))
(assert (not (= i4 i5)))
(assert (not (= i3 i40)))
(assert (not (= i3 i39)))
(assert (not (= i3 i38)))
(assert (not (= i3 i37)))
(assert (not (= i3 i36)))
(assert (not (= i3 i35)))
(assert (not (= i3 i34)))
(assert (not (= i3 i33)))
(assert (not (= i3 i32)))
(assert (not (= i3 i31)))
(assert (not (= i3 i30)))
(assert (not (= i3 i29)))
(assert (not (= i3 i28)))
(assert (not (= i3 i27)))
(assert (not (= i3 i26)))
(assert (not (= i3 i25)))
(assert (not (= i3 i24)))
(assert (not (= i3 i23)))
(assert (not (= i3 i22)))
(assert (not (= i3 i21)))
(assert (not (= i3 i20)))
(assert (not (= i3 i19)))
(assert (not (= i3 i18)))
(assert (not (= i3 i17)))
(assert (not (= i3 i16)))
(assert (not (= i3 i15)))
(assert (not (= i3 i14)))
(assert (not (= i3 i13)))
(assert (not (= i3 i12)))
(assert (not (= i3 i11)))
(assert (not (= i3 i10)))
(assert (not (= i3 i9)))
(assert (not (= i3 i8)))
(assert (not (= i3 i7)))
(assert (not (= i3 i6)))
(assert (not (= i3 i5)))
(assert (not (= i3 i4)))
(assert (not (= i2 i40)))
(assert (not (= i2 i39)))
(assert (not (= i2 i38)))
(assert (not (= i2 i37)))
(assert (not (= i2 i36)))
(assert (not (= i2 i35)))
(assert (not (= i2 i34)))
(assert (not (= i2 i33)))
(assert (not (= i2 i32)))
(assert (not (= i2 i31)))
(assert (not (= i2 i30)))
(assert (not (= i2 i29)))
(assert (not (= i2 i28)))
(assert (not (= i2 i27)))
(assert (not (= i2 i26)))
(assert (not (= i2 i25)))
(assert (not (= i2 i24)))
(assert (not (= i2 i23)))
(assert (not (= i2 i22)))
(assert (not (= i2 i21)))
(assert (not (= i2 i20)))
(assert (not (= i2 i19)))
(assert (not (= i2 i18)))
(assert (not (= i2 i17)))
(assert (not (= i2 i16)))
(assert (not (= i2 i15)))
(assert (not (= i2 i14)))
(assert (not (= i2 i13)))
(assert (not (= i2 i12)))
(assert (not (= i2 i11)))
(assert (not (= i2 i10)))
(assert (not (= i2 i9)))
(assert (not (= i2 i8)))
(assert (not (= i2 i7)))
(assert (not (= i2 i6)))
(assert (not (= i2 i5)))
(assert (not (= i2 i4)))
(assert (not (= i2 i3)))
(assert (not (= i1 i40)))
(assert (not (= i1 i39)))
(assert (not (= i1 i38)))
(assert (not (= i1 i37)))
(assert (not (= i1 i36)))
(assert (not (= i1 i35)))
(assert (not (= i1 i34)))
(assert (not (= i1 i33)))
(assert (not (= i1 i32)))
(assert (not (= i1 i31)))
(assert (not (= i1 i30)))
(assert (not (= i1 i29)))
(assert (not (= i1 i28)))
(assert (not (= i1 i27)))
(assert (not (= i1 i26)))
(assert (not (= i1 i25)))
(assert (not (= i1 i24)))
(assert (not (= i1 i23)))
(assert (not (= i1 i22)))
(assert (not (= i1 i21)))
(assert (not (= i1 i20)))
(assert (not (= i1 i19)))
(assert (not (= i1 i18)))
(assert (not (= i1 i17)))
(assert (not (= i1 i16)))
(assert (not (= i1 i15)))
(assert (not (= i1 i14)))
(assert (not (= i1 i13)))
(assert (not (= i1 i12)))
(assert (not (= i1 i11)))
(assert (not (= i1 i10)))
(assert (not (= i1 i9)))
(assert (not (= i1 i8)))
(assert (not (= i1 i7)))
(assert (not (= i1 i6)))
(assert (not (= i1 i5)))
(assert (not (= i1 i4)))
(assert (not (= i1 i3)))
(assert (not (= i1 i2)))
(assert (not (= a_839 a_879)))
(check-sat)
(exit)
